c CNF file corresponding to a (partial) station packing problem.
p cnf 747 229
1 2 3 4 5 6 7 8 9 10 11 12 13 14 0
-1 -2 0
-1 -3 0
-1 -4 0
-1 -5 0
-1 -6 0
-1 -7 0
-1 -8 0
-1 -9 0
-1 -10 0
-1 -11 0
-1 -12 0
-1 -13 0
-1 -14 0
-2 -3 0
-2 -4 0
-2 -5 0
-2 -6 0
-2 -7 0
-2 -8 0
-2 -9 0
-2 -10 0
-2 -11 0
-2 -12 0
-2 -13 0
-2 -14 0
-3 -4 0
-3 -5 0
-3 -6 0
-3 -7 0
-3 -8 0
-3 -9 0
-3 -10 0
-3 -11 0
-3 -12 0
-3 -13 0
-3 -14 0
-4 -5 0
-4 -6 0
-4 -7 0
-4 -8 0
-4 -9 0
-4 -10 0
-4 -11 0
-4 -12 0
-4 -13 0
-4 -14 0
-5 -6 0
-5 -7 0
-5 -8 0
-5 -9 0
-5 -10 0
-5 -11 0
-5 -12 0
-5 -13 0
-5 -14 0
-6 -7 0
-6 -8 0
-6 -9 0
-6 -10 0
-6 -11 0
-6 -12 0
-6 -13 0
-6 -14 0
-7 -8 0
-7 -9 0
-7 -10 0
-7 -11 0
-7 -12 0
-7 -13 0
-7 -14 0
-8 -9 0
-8 -10 0
-8 -11 0
-8 -12 0
-8 -13 0
-8 -14 0
-9 -10 0
-9 -11 0
-9 -12 0
-9 -13 0
-9 -14 0
-10 -11 0
-10 -12 0
-10 -13 0
-10 -14 0
-11 -12 0
-11 -13 0
-11 -14 0
-12 -13 0
-12 -14 0
-13 -14 0
731 732 733 734 735 736 737 738 739 740 741 742 743 744 745 746 747 0
-731 -732 0
-731 -733 0
-731 -734 0
-731 -735 0
-731 -736 0
-731 -737 0
-731 -738 0
-731 -739 0
-731 -740 0
-731 -741 0
-731 -742 0
-731 -743 0
-731 -744 0
-731 -745 0
-731 -746 0
-731 -747 0
-732 -733 0
-732 -734 0
-732 -735 0
-732 -736 0
-732 -737 0
-732 -738 0
-732 -739 0
-732 -740 0
-732 -741 0
-732 -742 0
-732 -743 0
-732 -744 0
-732 -745 0
-732 -746 0
-732 -747 0
-733 -734 0
-733 -735 0
-733 -736 0
-733 -737 0
-733 -738 0
-733 -739 0
-733 -740 0
-733 -741 0
-733 -742 0
-733 -743 0
-733 -744 0
-733 -745 0
-733 -746 0
-733 -747 0
-734 -735 0
-734 -736 0
-734 -737 0
-734 -738 0
-734 -739 0
-734 -740 0
-734 -741 0
-734 -742 0
-734 -743 0
-734 -744 0
-734 -745 0
-734 -746 0
-734 -747 0
-735 -736 0
-735 -737 0
-735 -738 0
-735 -739 0
-735 -740 0
-735 -741 0
-735 -742 0
-735 -743 0
-735 -744 0
-735 -745 0
-735 -746 0
-735 -747 0
-736 -737 0
-736 -738 0
-736 -739 0
-736 -740 0
-736 -741 0
-736 -742 0
-736 -743 0
-736 -744 0
-736 -745 0
-736 -746 0
-736 -747 0
-737 -738 0
-737 -739 0
-737 -740 0
-737 -741 0
-737 -742 0
-737 -743 0
-737 -744 0
-737 -745 0
-737 -746 0
-737 -747 0
-738 -739 0
-738 -740 0
-738 -741 0
-738 -742 0
-738 -743 0
-738 -744 0
-738 -745 0
-738 -746 0
-738 -747 0
-739 -740 0
-739 -741 0
-739 -742 0
-739 -743 0
-739 -744 0
-739 -745 0
-739 -746 0
-739 -747 0
-740 -741 0
-740 -742 0
-740 -743 0
-740 -744 0
-740 -745 0
-740 -746 0
-740 -747 0
-741 -742 0
-741 -743 0
-741 -744 0
-741 -745 0
-741 -746 0
-741 -747 0
-742 -743 0
-742 -744 0
-742 -745 0
-742 -746 0
-742 -747 0
-743 -744 0
-743 -745 0
-743 -746 0
-743 -747 0
-744 -745 0
-744 -746 0
-744 -747 0
-745 -746 0
-745 -747 0
-746 -747 0
